param set_len = 18;
param target := 9969122;
param values := [1] 427223 [2] 1231193 [3] 1255535 [4] 1134990 [5] 958678 [6] 1624877 [7] 1860054 [8] 1347822 [9] 696573 [10] 1674213 [11] 2061935 [12] 1539009 [13] 1554092 [14] 1261645 [15] 45648 [16] 1406833 [17] 514620 [18] 203589 ;
